NAME           C:\Bruker\Hvattum\knapsack\Problems\class4\100-10-04.mps
ROWS
 N  OBJ
 L  CONSTR1
 L  CONSTR2
 L  CONSTR3
 L  CONSTR4
 L  CONSTR5
 L  CONSTR6
 L  CONSTR7
 L  CONSTR8
 L  CONSTR9
 L  CONSTR10
COLUMNS
    INT0001   'MARKER'  'INTORG'
    X1        OBJ       846
    X1        CONSTR1   478
    X1        CONSTR2   598
    X1        CONSTR3   7
    X1        CONSTR4   518
    X1        CONSTR5   821
    X1        CONSTR6   830
    X1        CONSTR7   2
    X1        CONSTR8   872
    X1        CONSTR9   957
    X1        CONSTR10  383
    X2        OBJ       578
    X2        CONSTR1   209
    X2        CONSTR2   280
    X2        CONSTR3   60
    X2        CONSTR4   448
    X2        CONSTR5   390
    X2        CONSTR6   72
    X2        CONSTR7   281
    X2        CONSTR8   394
    X2        CONSTR9   893
    X2        CONSTR10  363
    X3        OBJ       811
    X3        CONSTR1   549
    X3        CONSTR2   441
    X3        CONSTR3   644
    X3        CONSTR4   516
    X3        CONSTR5   11
    X3        CONSTR6   961
    X3        CONSTR7   882
    X3        CONSTR8   735
    X3        CONSTR9   975
    X3        CONSTR10  611
    X4        OBJ       890
    X4        CONSTR1   155
    X4        CONSTR2   103
    X4        CONSTR3   944
    X4        CONSTR4   406
    X4        CONSTR5   542
    X4        CONSTR6   289
    X4        CONSTR7   914
    X4        CONSTR8   740
    X4        CONSTR9   742
    X4        CONSTR10  279
    X5        OBJ       795
    X5        CONSTR1   805
    X5        CONSTR2   594
    X5        CONSTR3   50
    X5        CONSTR4   727
    X5        CONSTR5   279
    X5        CONSTR6   882
    X5        CONSTR7   652
    X5        CONSTR8   91
    X5        CONSTR9   687
    X5        CONSTR10  531
    X6        OBJ       521
    X6        CONSTR1   64
    X6        CONSTR2   278
    X6        CONSTR3   492
    X6        CONSTR4   939
    X6        CONSTR5   386
    X6        CONSTR6   131
    X6        CONSTR7   659
    X6        CONSTR8   21
    X6        CONSTR9   732
    X6        CONSTR10  739
    X7        OBJ       718
    X7        CONSTR1   528
    X7        CONSTR2   272
    X7        CONSTR3   580
    X7        CONSTR4   575
    X7        CONSTR5   694
    X7        CONSTR6   723
    X7        CONSTR7   733
    X7        CONSTR8   272
    X7        CONSTR9   916
    X7        CONSTR10  303
    X8        OBJ       757
    X8        CONSTR1   904
    X8        CONSTR2   703
    X8        CONSTR3   209
    X8        CONSTR4   82
    X8        CONSTR5   586
    X8        CONSTR6   265
    X8        CONSTR7   553
    X8        CONSTR8   518
    X8        CONSTR9   790
    X8        CONSTR10  183
    X9        OBJ       995
    X9        CONSTR1   832
    X9        CONSTR2   781
    X9        CONSTR3   353
    X9        CONSTR4   628
    X9        CONSTR5   377
    X9        CONSTR6   467
    X9        CONSTR7   693
    X9        CONSTR8   886
    X9        CONSTR9   232
    X9        CONSTR10  910
    X10       OBJ       825
    X10       CONSTR1   14
    X10       CONSTR2   701
    X10       CONSTR3   323
    X10       CONSTR4   78
    X10       CONSTR5   757
    X10       CONSTR6   613
    X10       CONSTR7   747
    X10       CONSTR8   540
    X10       CONSTR9   150
    X10       CONSTR10  102
    X11       OBJ       843
    X11       CONSTR1   606
    X11       CONSTR2   338
    X11       CONSTR3   308
    X11       CONSTR4   950
    X11       CONSTR5   234
    X11       CONSTR6   307
    X11       CONSTR7   997
    X11       CONSTR8   452
    X11       CONSTR9   942
    X11       CONSTR10  481
    X12       OBJ       874
    X12       CONSTR1   436
    X12       CONSTR2   273
    X12       CONSTR3   875
    X12       CONSTR4   135
    X12       CONSTR5   691
    X12       CONSTR6   896
    X12       CONSTR7   535
    X12       CONSTR8   964
    X12       CONSTR9   643
    X12       CONSTR10  30
    X13       OBJ       834
    X13       CONSTR1   221
    X13       CONSTR2   821
    X13       CONSTR3   780
    X13       CONSTR4   510
    X13       CONSTR5   491
    X13       CONSTR6   427
    X13       CONSTR7   701
    X13       CONSTR8   319
    X13       CONSTR9   908
    X13       CONSTR10  496
    X14       OBJ       831
    X14       CONSTR1   937
    X14       CONSTR2   798
    X14       CONSTR3   324
    X14       CONSTR4   481
    X14       CONSTR5   710
    X14       CONSTR6   424
    X14       CONSTR7   170
    X14       CONSTR8   7
    X14       CONSTR9   593
    X14       CONSTR10  53
    X15       OBJ       556
    X15       CONSTR1   477
    X15       CONSTR2   801
    X15       CONSTR3   178
    X15       CONSTR4   671
    X15       CONSTR5   171
    X15       CONSTR6   38
    X15       CONSTR7   236
    X15       CONSTR8   958
    X15       CONSTR9   363
    X15       CONSTR10  862
    X16       OBJ       601
    X16       CONSTR1   646
    X16       CONSTR2   376
    X16       CONSTR3   479
    X16       CONSTR4   359
    X16       CONSTR5   80
    X16       CONSTR6   320
    X16       CONSTR7   921
    X16       CONSTR8   350
    X16       CONSTR9   238
    X16       CONSTR10  782
    X17       OBJ       472
    X17       CONSTR1   472
    X17       CONSTR2   712
    X17       CONSTR3   226
    X17       CONSTR4   436
    X17       CONSTR5   183
    X17       CONSTR6   228
    X17       CONSTR7   130
    X17       CONSTR8   976
    X17       CONSTR9   97
    X17       CONSTR10  555
    X18       OBJ       487
    X18       CONSTR1   708
    X18       CONSTR2   164
    X18       CONSTR3   637
    X18       CONSTR4   575
    X18       CONSTR5   28
    X18       CONSTR6   333
    X18       CONSTR7   428
    X18       CONSTR8   1
    X18       CONSTR9   517
    X18       CONSTR10  807
    X19       OBJ       640
    X19       CONSTR1   678
    X19       CONSTR2   937
    X19       CONSTR3   251
    X19       CONSTR4   916
    X19       CONSTR5   315
    X19       CONSTR6   234
    X19       CONSTR7   553
    X19       CONSTR8   851
    X19       CONSTR9   913
    X19       CONSTR10  377
    X20       OBJ       885
    X20       CONSTR1   633
    X20       CONSTR2   602
    X20       CONSTR3   870
    X20       CONSTR4   89
    X20       CONSTR5   457
    X20       CONSTR6   222
    X20       CONSTR7   520
    X20       CONSTR8   652
    X20       CONSTR9   709
    X20       CONSTR10  203
    X21       OBJ       766
    X21       CONSTR1   7
    X21       CONSTR2   156
    X21       CONSTR3   392
    X21       CONSTR4   999
    X21       CONSTR5   331
    X21       CONSTR6   687
    X21       CONSTR7   633
    X21       CONSTR8   802
    X21       CONSTR9   119
    X21       CONSTR10  572
    X22       OBJ       867
    X22       CONSTR1   110
    X22       CONSTR2   114
    X22       CONSTR3   1000
    X22       CONSTR4   15
    X22       CONSTR5   751
    X22       CONSTR6   783
    X22       CONSTR7   941
    X22       CONSTR8   136
    X22       CONSTR9   382
    X22       CONSTR10  926
    X23       OBJ       849
    X23       CONSTR1   435
    X23       CONSTR2   220
    X23       CONSTR3   782
    X23       CONSTR4   245
    X23       CONSTR5   992
    X23       CONSTR6   350
    X23       CONSTR7   440
    X23       CONSTR8   685
    X23       CONSTR9   625
    X23       CONSTR10  908
    X24       OBJ       1053
    X24       CONSTR1   929
    X24       CONSTR2   343
    X24       CONSTR3   652
    X24       CONSTR4   891
    X24       CONSTR5   706
    X24       CONSTR6   960
    X24       CONSTR7   959
    X24       CONSTR8   89
    X24       CONSTR9   851
    X24       CONSTR10  739
    X25       OBJ       532
    X25       CONSTR1   925
    X25       CONSTR2   749
    X25       CONSTR3   371
    X25       CONSTR4   713
    X25       CONSTR5   238
    X25       CONSTR6   472
    X25       CONSTR7   349
    X25       CONSTR8   14
    X25       CONSTR9   233
    X25       CONSTR10  692
    X26       OBJ       1120
    X26       CONSTR1   584
    X26       CONSTR2   713
    X26       CONSTR3   929
    X26       CONSTR4   470
    X26       CONSTR5   758
    X26       CONSTR6   196
    X26       CONSTR7   318
    X26       CONSTR8   935
    X26       CONSTR9   988
    X26       CONSTR10  808
    X27       OBJ       664
    X27       CONSTR1   556
    X27       CONSTR2   121
    X27       CONSTR3   274
    X27       CONSTR4   469
    X27       CONSTR5   309
    X27       CONSTR6   202
    X27       CONSTR7   153
    X27       CONSTR8   387
    X27       CONSTR9   624
    X27       CONSTR10  489
    X28       OBJ       1030
    X28       CONSTR1   795
    X28       CONSTR2   240
    X28       CONSTR3   693
    X28       CONSTR4   654
    X28       CONSTR5   606
    X28       CONSTR6   592
    X28       CONSTR7   529
    X28       CONSTR8   678
    X28       CONSTR9   354
    X28       CONSTR10  804
    X29       OBJ       624
    X29       CONSTR1   435
    X29       CONSTR2   21
    X29       CONSTR3   919
    X29       CONSTR4   489
    X29       CONSTR5   389
    X29       CONSTR6   231
    X29       CONSTR7   601
    X29       CONSTR8   915
    X29       CONSTR9   708
    X29       CONSTR10  915
    X30       OBJ       627
    X30       CONSTR1   73
    X30       CONSTR2   26
    X30       CONSTR3   12
    X30       CONSTR4   826
    X30       CONSTR5   952
    X30       CONSTR6   255
    X30       CONSTR7   122
    X30       CONSTR8   243
    X30       CONSTR9   476
    X30       CONSTR10  70
    X31       OBJ       905
    X31       CONSTR1   934
    X31       CONSTR2   580
    X31       CONSTR3   737
    X31       CONSTR4   582
    X31       CONSTR5   393
    X31       CONSTR6   789
    X31       CONSTR7   145
    X31       CONSTR8   322
    X31       CONSTR9   793
    X31       CONSTR10  540
    X32       OBJ       1051
    X32       CONSTR1   534
    X32       CONSTR2   760
    X32       CONSTR3   321
    X32       CONSTR4   451
    X32       CONSTR5   958
    X32       CONSTR6   461
    X32       CONSTR7   820
    X32       CONSTR8   916
    X32       CONSTR9   569
    X32       CONSTR10  456
    X33       OBJ       532
    X33       CONSTR1   355
    X33       CONSTR2   29
    X33       CONSTR3   758
    X33       CONSTR4   887
    X33       CONSTR5   867
    X33       CONSTR6   544
    X33       CONSTR7   101
    X33       CONSTR8   783
    X33       CONSTR9   642
    X33       CONSTR10  273
    X34       OBJ       906
    X34       CONSTR1   954
    X34       CONSTR2   295
    X34       CONSTR3   707
    X34       CONSTR4   559
    X34       CONSTR5   923
    X34       CONSTR6   71
    X34       CONSTR7   660
    X34       CONSTR8   32
    X34       CONSTR9   620
    X34       CONSTR10  727
    X35       OBJ       695
    X35       CONSTR1   834
    X35       CONSTR2   516
    X35       CONSTR3   122
    X35       CONSTR4   613
    X35       CONSTR5   97
    X35       CONSTR6   954
    X35       CONSTR7   867
    X35       CONSTR8   818
    X35       CONSTR9   436
    X35       CONSTR10  681
    X36       OBJ       1121
    X36       CONSTR1   347
    X36       CONSTR2   707
    X36       CONSTR3   383
    X36       CONSTR4   441
    X36       CONSTR5   678
    X36       CONSTR6   622
    X36       CONSTR7   928
    X36       CONSTR8   943
    X36       CONSTR9   701
    X36       CONSTR10  666
    X37       OBJ       771
    X37       CONSTR1   730
    X37       CONSTR2   429
    X37       CONSTR3   775
    X37       CONSTR4   591
    X37       CONSTR5   114
    X37       CONSTR6   29
    X37       CONSTR7   923
    X37       CONSTR8   654
    X37       CONSTR9   214
    X37       CONSTR10  579
    X38       OBJ       845
    X38       CONSTR1   872
    X38       CONSTR2   209
    X38       CONSTR3   538
    X38       CONSTR4   314
    X38       CONSTR5   542
    X38       CONSTR6   61
    X38       CONSTR7   52
    X38       CONSTR8   457
    X38       CONSTR9   49
    X38       CONSTR10  658
    X39       OBJ       735
    X39       CONSTR1   407
    X39       CONSTR2   375
    X39       CONSTR3   111
    X39       CONSTR4   78
    X39       CONSTR5   518
    X39       CONSTR6   618
    X39       CONSTR7   533
    X39       CONSTR8   257
    X39       CONSTR9   261
    X39       CONSTR10  740
    X40       OBJ       759
    X40       CONSTR1   789
    X40       CONSTR2   112
    X40       CONSTR3   170
    X40       CONSTR4   564
    X40       CONSTR5   867
    X40       CONSTR6   790
    X40       CONSTR7   550
    X40       CONSTR8   322
    X40       CONSTR9   481
    X40       CONSTR10  542
    X41       OBJ       684
    X41       CONSTR1   968
    X41       CONSTR2   397
    X41       CONSTR3   500
    X41       CONSTR4   120
    X41       CONSTR5   92
    X41       CONSTR6   208
    X41       CONSTR7   750
    X41       CONSTR8   315
    X41       CONSTR9   909
    X41       CONSTR10  927
    X42       OBJ       1088
    X42       CONSTR1   924
    X42       CONSTR2   809
    X42       CONSTR3   740
    X42       CONSTR4   463
    X42       CONSTR5   519
    X42       CONSTR6   48
    X42       CONSTR7   525
    X42       CONSTR8   426
    X42       CONSTR9   705
    X42       CONSTR10  989
    X43       OBJ       773
    X43       CONSTR1   519
    X43       CONSTR2   782
    X43       CONSTR3   995
    X43       CONSTR4   190
    X43       CONSTR5   199
    X43       CONSTR6   552
    X43       CONSTR7   98
    X43       CONSTR8   520
    X43       CONSTR9   724
    X43       CONSTR10  636
    X44       OBJ       967
    X44       CONSTR1   945
    X44       CONSTR2   712
    X44       CONSTR3   630
    X44       CONSTR4   388
    X44       CONSTR5   496
    X44       CONSTR6   687
    X44       CONSTR7   600
    X44       CONSTR8   743
    X44       CONSTR9   365
    X44       CONSTR10  26
    X45       OBJ       942
    X45       CONSTR1   704
    X45       CONSTR2   306
    X45       CONSTR3   210
    X45       CONSTR4   674
    X45       CONSTR5   792
    X45       CONSTR6   723
    X45       CONSTR7   271
    X45       CONSTR8   273
    X45       CONSTR9   409
    X45       CONSTR10  985
    X46       OBJ       906
    X46       CONSTR1   997
    X46       CONSTR2   529
    X46       CONSTR3   697
    X46       CONSTR4   426
    X46       CONSTR5   932
    X46       CONSTR6   552
    X46       CONSTR7   624
    X46       CONSTR8   901
    X46       CONSTR9   880
    X46       CONSTR10  249
    X47       OBJ       626
    X47       CONSTR1   866
    X47       CONSTR2   375
    X47       CONSTR3   200
    X47       CONSTR4   498
    X47       CONSTR5   141
    X47       CONSTR6   783
    X47       CONSTR7   794
    X47       CONSTR8   855
    X47       CONSTR9   480
    X47       CONSTR10  823
    X48       OBJ       827
    X48       CONSTR1   380
    X48       CONSTR2   212
    X48       CONSTR3   688
    X48       CONSTR4   859
    X48       CONSTR5   393
    X48       CONSTR6   942
    X48       CONSTR7   69
    X48       CONSTR8   956
    X48       CONSTR9   944
    X48       CONSTR10  645
    X49       OBJ       814
    X49       CONSTR1   248
    X49       CONSTR2   335
    X49       CONSTR3   542
    X49       CONSTR4   665
    X49       CONSTR5   517
    X49       CONSTR6   924
    X49       CONSTR7   368
    X49       CONSTR8   368
    X49       CONSTR9   276
    X49       CONSTR10  257
    X50       OBJ       573
    X50       CONSTR1   96
    X50       CONSTR2   510
    X50       CONSTR3   654
    X50       CONSTR4   15
    X50       CONSTR5   282
    X50       CONSTR6   348
    X50       CONSTR7   134
    X50       CONSTR8   510
    X50       CONSTR9   603
    X50       CONSTR10  617
    X51       OBJ       851
    X51       CONSTR1   476
    X51       CONSTR2   662
    X51       CONSTR3   668
    X51       CONSTR4   443
    X51       CONSTR5   96
    X51       CONSTR6   300
    X51       CONSTR7   963
    X51       CONSTR8   777
    X51       CONSTR9   851
    X51       CONSTR10  685
    X52       OBJ       925
    X52       CONSTR1   7
    X52       CONSTR2   16
    X52       CONSTR3   57
    X52       CONSTR4   916
    X52       CONSTR5   813
    X52       CONSTR6   586
    X52       CONSTR7   641
    X52       CONSTR8   972
    X52       CONSTR9   518
    X52       CONSTR10  235
    X53       OBJ       670
    X53       CONSTR1   752
    X53       CONSTR2   457
    X53       CONSTR3   820
    X53       CONSTR4   299
    X53       CONSTR5   576
    X53       CONSTR6   577
    X53       CONSTR7   68
    X53       CONSTR8   752
    X53       CONSTR9   70
    X53       CONSTR10  595
    X54       OBJ       551
    X54       CONSTR1   565
    X54       CONSTR2   699
    X54       CONSTR3   315
    X54       CONSTR4   779
    X54       CONSTR5   238
    X54       CONSTR6   380
    X54       CONSTR7   952
    X54       CONSTR8   463
    X54       CONSTR9   381
    X54       CONSTR10  607
    X55       OBJ       557
    X55       CONSTR1   799
    X55       CONSTR2   123
    X55       CONSTR3   946
    X55       CONSTR4   158
    X55       CONSTR5   900
    X55       CONSTR6   378
    X55       CONSTR7   270
    X55       CONSTR8   518
    X55       CONSTR9   243
    X55       CONSTR10  780
    X56       OBJ       596
    X56       CONSTR1   827
    X56       CONSTR2   393
    X56       CONSTR3   17
    X56       CONSTR4   804
    X56       CONSTR5   326
    X56       CONSTR6   876
    X56       CONSTR7   597
    X56       CONSTR8   155
    X56       CONSTR9   447
    X56       CONSTR10  582
    X57       OBJ       669
    X57       CONSTR1   99
    X57       CONSTR2   160
    X57       CONSTR3   695
    X57       CONSTR4   211
    X57       CONSTR5   973
    X57       CONSTR6   79
    X57       CONSTR7   277
    X57       CONSTR8   343
    X57       CONSTR9   479
    X57       CONSTR10  740
    X58       OBJ       717
    X58       CONSTR1   769
    X58       CONSTR2   710
    X58       CONSTR3   354
    X58       CONSTR4   567
    X58       CONSTR5   863
    X58       CONSTR6   678
    X58       CONSTR7   7
    X58       CONSTR8   499
    X58       CONSTR9   421
    X58       CONSTR10  853
    X59       OBJ       907
    X59       CONSTR1   9
    X59       CONSTR2   90
    X59       CONSTR3   47
    X59       CONSTR4   572
    X59       CONSTR5   923
    X59       CONSTR6   585
    X59       CONSTR7   666
    X59       CONSTR8   837
    X59       CONSTR9   590
    X59       CONSTR10  894
    X60       OBJ       810
    X60       CONSTR1   228
    X60       CONSTR2   896
    X60       CONSTR3   99
    X60       CONSTR4   602
    X60       CONSTR5   477
    X60       CONSTR6   980
    X60       CONSTR7   508
    X60       CONSTR8   206
    X60       CONSTR9   245
    X60       CONSTR10  612
    X61       OBJ       454
    X61       CONSTR1   590
    X61       CONSTR2   246
    X61       CONSTR3   47
    X61       CONSTR4   620
    X61       CONSTR5   39
    X61       CONSTR6   170
    X61       CONSTR7   179
    X61       CONSTR8   707
    X61       CONSTR9   644
    X61       CONSTR10  724
    X62       OBJ       985
    X62       CONSTR1   786
    X62       CONSTR2   409
    X62       CONSTR3   541
    X62       CONSTR4   127
    X62       CONSTR5   329
    X62       CONSTR6   266
    X62       CONSTR7   83
    X62       CONSTR8   468
    X62       CONSTR9   988
    X62       CONSTR10  899
    X63       OBJ       1028
    X63       CONSTR1   355
    X63       CONSTR2   877
    X63       CONSTR3   939
    X63       CONSTR4   222
    X63       CONSTR5   761
    X63       CONSTR6   470
    X63       CONSTR7   425
    X63       CONSTR8   494
    X63       CONSTR9   555
    X63       CONSTR10  676
    X64       OBJ       940
    X64       CONSTR1   263
    X64       CONSTR2   475
    X64       CONSTR3   933
    X64       CONSTR4   317
    X64       CONSTR5   792
    X64       CONSTR6   426
    X64       CONSTR7   681
    X64       CONSTR8   998
    X64       CONSTR9   771
    X64       CONSTR10  371
    X65       OBJ       864
    X65       CONSTR1   955
    X65       CONSTR2   674
    X65       CONSTR3   965
    X65       CONSTR4   893
    X65       CONSTR5   208
    X65       CONSTR6   987
    X65       CONSTR7   653
    X65       CONSTR8   30
    X65       CONSTR9   634
    X65       CONSTR10  833
    X66       OBJ       834
    X66       CONSTR1   590
    X66       CONSTR2   1
    X66       CONSTR3   500
    X66       CONSTR4   943
    X66       CONSTR5   288
    X66       CONSTR6   716
    X66       CONSTR7   788
    X66       CONSTR8   746
    X66       CONSTR9   47
    X66       CONSTR10  526
    X67       OBJ       569
    X67       CONSTR1   255
    X67       CONSTR2   274
    X67       CONSTR3   92
    X67       CONSTR4   951
    X67       CONSTR5   835
    X67       CONSTR6   385
    X67       CONSTR7   989
    X67       CONSTR8   401
    X67       CONSTR9   72
    X67       CONSTR10  240
    X68       OBJ       758
    X68       CONSTR1   604
    X68       CONSTR2   584
    X68       CONSTR3   396
    X68       CONSTR4   450
    X68       CONSTR5   580
    X68       CONSTR6   175
    X68       CONSTR7   993
    X68       CONSTR8   715
    X68       CONSTR9   813
    X68       CONSTR10  885
    X69       OBJ       689
    X69       CONSTR1   989
    X69       CONSTR2   450
    X69       CONSTR3   192
    X69       CONSTR4   855
    X69       CONSTR5   479
    X69       CONSTR6   381
    X69       CONSTR7   649
    X69       CONSTR8   964
    X69       CONSTR9   891
    X69       CONSTR10  797
    X70       OBJ       718
    X70       CONSTR1   723
    X70       CONSTR2   94
    X70       CONSTR3   497
    X70       CONSTR4   136
    X70       CONSTR5   80
    X70       CONSTR6   508
    X70       CONSTR7   929
    X70       CONSTR8   322
    X70       CONSTR9   457
    X70       CONSTR10  162
    X71       OBJ       922
    X71       CONSTR1   191
    X71       CONSTR2   915
    X71       CONSTR3   185
    X71       CONSTR4   927
    X71       CONSTR5   973
    X71       CONSTR6   370
    X71       CONSTR7   952
    X71       CONSTR8   273
    X71       CONSTR9   487
    X71       CONSTR10  269
    X72       OBJ       522
    X72       CONSTR1   258
    X72       CONSTR2   841
    X72       CONSTR3   41
    X72       CONSTR4   234
    X72       CONSTR5   40
    X72       CONSTR6   279
    X72       CONSTR7   492
    X72       CONSTR8   952
    X72       CONSTR9   196
    X72       CONSTR10  700
    X73       OBJ       885
    X73       CONSTR1   664
    X73       CONSTR2   25
    X73       CONSTR3   262
    X73       CONSTR4   974
    X73       CONSTR5   645
    X73       CONSTR6   790
    X73       CONSTR7   643
    X73       CONSTR8   638
    X73       CONSTR9   875
    X73       CONSTR10  381
    X74       OBJ       438
    X74       CONSTR1   37
    X74       CONSTR2   599
    X74       CONSTR3   196
    X74       CONSTR4   93
    X74       CONSTR5   542
    X74       CONSTR6   503
    X74       CONSTR7   203
    X74       CONSTR8   882
    X74       CONSTR9   317
    X74       CONSTR10  413
    X75       OBJ       924
    X75       CONSTR1   805
    X75       CONSTR2   377
    X75       CONSTR3   180
    X75       CONSTR4   555
    X75       CONSTR5   197
    X75       CONSTR6   145
    X75       CONSTR7   773
    X75       CONSTR8   933
    X75       CONSTR9   552
    X75       CONSTR10  136
    X76       OBJ       721
    X76       CONSTR1   836
    X76       CONSTR2   934
    X76       CONSTR3   781
    X76       CONSTR4   69
    X76       CONSTR5   423
    X76       CONSTR6   967
    X76       CONSTR7   715
    X76       CONSTR8   674
    X76       CONSTR9   215
    X76       CONSTR10  923
    X77       OBJ       506
    X77       CONSTR1   552
    X77       CONSTR2   270
    X77       CONSTR3   562
    X77       CONSTR4   651
    X77       CONSTR5   349
    X77       CONSTR6   54
    X77       CONSTR7   512
    X77       CONSTR8   284
    X77       CONSTR9   521
    X77       CONSTR10  889
    X78       OBJ       891
    X78       CONSTR1   792
    X78       CONSTR2   634
    X78       CONSTR3   773
    X78       CONSTR4   817
    X78       CONSTR5   534
    X78       CONSTR6   724
    X78       CONSTR7   25
    X78       CONSTR8   765
    X78       CONSTR9   599
    X78       CONSTR10  772
    X79       OBJ       774
    X79       CONSTR1   86
    X79       CONSTR2   752
    X79       CONSTR3   917
    X79       CONSTR4   990
    X79       CONSTR5   722
    X79       CONSTR6   798
    X79       CONSTR7   698
    X79       CONSTR8   436
    X79       CONSTR9   324
    X79       CONSTR10  147
    X80       OBJ       904
    X80       CONSTR1   935
    X80       CONSTR2   669
    X80       CONSTR3   798
    X80       CONSTR4   658
    X80       CONSTR5   907
    X80       CONSTR6   622
    X80       CONSTR7   432
    X80       CONSTR8   264
    X80       CONSTR9   704
    X80       CONSTR10  74
    X81       OBJ       895
    X81       CONSTR1   711
    X81       CONSTR2   704
    X81       CONSTR3   63
    X81       CONSTR4   758
    X81       CONSTR5   503
    X81       CONSTR6   25
    X81       CONSTR7   775
    X81       CONSTR8   812
    X81       CONSTR9   591
    X81       CONSTR10  137
    X82       OBJ       525
    X82       CONSTR1   868
    X82       CONSTR2   838
    X82       CONSTR3   813
    X82       CONSTR4   324
    X82       CONSTR5   235
    X82       CONSTR6   278
    X82       CONSTR7   234
    X82       CONSTR8   476
    X82       CONSTR9   16
    X82       CONSTR10  258
    X83       OBJ       743
    X83       CONSTR1   373
    X83       CONSTR2   953
    X83       CONSTR3   837
    X83       CONSTR4   149
    X83       CONSTR5   604
    X83       CONSTR6   319
    X83       CONSTR7   154
    X83       CONSTR8   582
    X83       CONSTR9   999
    X83       CONSTR10  246
    X84       OBJ       452
    X84       CONSTR1   9
    X84       CONSTR2   970
    X84       CONSTR3   575
    X84       CONSTR4   361
    X84       CONSTR5   18
    X84       CONSTR6   93
    X84       CONSTR7   360
    X84       CONSTR8   434
    X84       CONSTR9   931
    X84       CONSTR10  527
    X85       OBJ       915
    X85       CONSTR1   635
    X85       CONSTR2   467
    X85       CONSTR3   288
    X85       CONSTR4   747
    X85       CONSTR5   531
    X85       CONSTR6   629
    X85       CONSTR7   28
    X85       CONSTR8   437
    X85       CONSTR9   880
    X85       CONSTR10  94
    X86       OBJ       636
    X86       CONSTR1   641
    X86       CONSTR2   329
    X86       CONSTR3   43
    X86       CONSTR4   338
    X86       CONSTR5   969
    X86       CONSTR6   236
    X86       CONSTR7   268
    X86       CONSTR8   558
    X86       CONSTR9   923
    X86       CONSTR10  413
    X87       OBJ       982
    X87       CONSTR1   441
    X87       CONSTR2   787
    X87       CONSTR3   465
    X87       CONSTR4   405
    X87       CONSTR5   906
    X87       CONSTR6   203
    X87       CONSTR7   205
    X87       CONSTR8   795
    X87       CONSTR9   995
    X87       CONSTR10  452
    X88       OBJ       634
    X88       CONSTR1   305
    X88       CONSTR2   54
    X88       CONSTR3   280
    X88       CONSTR4   374
    X88       CONSTR5   954
    X88       CONSTR6   70
    X88       CONSTR7   98
    X88       CONSTR8   881
    X88       CONSTR9   223
    X88       CONSTR10  485
    X89       OBJ       585
    X89       CONSTR1   669
    X89       CONSTR2   516
    X89       CONSTR3   773
    X89       CONSTR4   916
    X89       CONSTR5   277
    X89       CONSTR6   410
    X89       CONSTR7   420
    X89       CONSTR8   242
    X89       CONSTR9   563
    X89       CONSTR10  212
    X90       OBJ       602
    X90       CONSTR1   647
    X90       CONSTR2   561
    X90       CONSTR3   951
    X90       CONSTR4   57
    X90       CONSTR5   602
    X90       CONSTR6   441
    X90       CONSTR7   416
    X90       CONSTR8   909
    X90       CONSTR9   82
    X90       CONSTR10  630
    X91       OBJ       768
    X91       CONSTR1   686
    X91       CONSTR2   358
    X91       CONSTR3   987
    X91       CONSTR4   525
    X91       CONSTR5   342
    X91       CONSTR6   905
    X91       CONSTR7   846
    X91       CONSTR8   68
    X91       CONSTR9   372
    X91       CONSTR10  822
    X92       OBJ       711
    X92       CONSTR1   640
    X92       CONSTR2   433
    X92       CONSTR3   523
    X92       CONSTR4   358
    X92       CONSTR5   91
    X92       CONSTR6   655
    X92       CONSTR7   292
    X92       CONSTR8   539
    X92       CONSTR9   290
    X92       CONSTR10  662
    X93       OBJ       707
    X93       CONSTR1   625
    X93       CONSTR2   715
    X93       CONSTR3   445
    X93       CONSTR4   840
    X93       CONSTR5   877
    X93       CONSTR6   452
    X93       CONSTR7   304
    X93       CONSTR8   879
    X93       CONSTR9   764
    X93       CONSTR10  881
    X94       OBJ       914
    X94       CONSTR1   615
    X94       CONSTR2   11
    X94       CONSTR3   208
    X94       CONSTR4   182
    X94       CONSTR5   786
    X94       CONSTR6   924
    X94       CONSTR7   90
    X94       CONSTR8   465
    X94       CONSTR9   568
    X94       CONSTR10  731
    X95       OBJ       858
    X95       CONSTR1   165
    X95       CONSTR2   860
    X95       CONSTR3   47
    X95       CONSTR4   827
    X95       CONSTR5   434
    X95       CONSTR6   730
    X95       CONSTR7   512
    X95       CONSTR8   651
    X95       CONSTR9   792
    X95       CONSTR10  58
    X96       OBJ       757
    X96       CONSTR1   491
    X96       CONSTR2   888
    X96       CONSTR3   553
    X96       CONSTR4   406
    X96       CONSTR5   737
    X96       CONSTR6   355
    X96       CONSTR7   833
    X96       CONSTR8   114
    X96       CONSTR9   247
    X96       CONSTR10  743
    X97       OBJ       915
    X97       CONSTR1   934
    X97       CONSTR2   613
    X97       CONSTR3   662
    X97       CONSTR4   583
    X97       CONSTR5   132
    X97       CONSTR6   681
    X97       CONSTR7   705
    X97       CONSTR8   253
    X97       CONSTR9   317
    X97       CONSTR10  791
    X98       OBJ       689
    X98       CONSTR1   6
    X98       CONSTR2   949
    X98       CONSTR3   606
    X98       CONSTR4   335
    X98       CONSTR5   204
    X98       CONSTR6   664
    X98       CONSTR7   977
    X98       CONSTR8   993
    X98       CONSTR9   493
    X98       CONSTR10  287
    X99       OBJ       798
    X99       CONSTR1   34
    X99       CONSTR2   296
    X99       CONSTR3   411
    X99       CONSTR4   32
    X99       CONSTR5   750
    X99       CONSTR6   950
    X99       CONSTR7   255
    X99       CONSTR8   483
    X99       CONSTR9   714
    X99       CONSTR10  97
    X100      OBJ       646
    X100      CONSTR1   717
    X100      CONSTR2   300
    X100      CONSTR3   200
    X100      CONSTR4   793
    X100      CONSTR5   390
    X100      CONSTR6   212
    X100      CONSTR7   525
    X100      CONSTR8   657
    X100      CONSTR9   574
    X100      CONSTR10  56
    INT0001   'MARKER'  'INTEND'
RHS
    RHS10001  CONSTR1   13653
    RHS10001  CONSTR2   12041
    RHS10001  CONSTR3   12159
    RHS10001  CONSTR4   12833
    RHS10001  CONSTR5   12701
    RHS10001  CONSTR6   12121
    RHS10001  CONSTR7   12806
    RHS10001  CONSTR8   13888
    RHS10001  CONSTR9   13915
    RHS10001  CONSTR10  13493
BOUNDS
 BV BND       X1        .00
 BV BND       X2        .00
 BV BND       X3        .00
 BV BND       X4        .00
 BV BND       X5        .00
 BV BND       X6        .00
 BV BND       X7        .00
 BV BND       X8        .00
 BV BND       X9        .00
 BV BND       X10       .00
 BV BND       X11       .00
 BV BND       X12       .00
 BV BND       X13       .00
 BV BND       X14       .00
 BV BND       X15       .00
 BV BND       X16       .00
 BV BND       X17       .00
 BV BND       X18       .00
 BV BND       X19       .00
 BV BND       X20       .00
 BV BND       X21       .00
 BV BND       X22       .00
 BV BND       X23       .00
 BV BND       X24       .00
 BV BND       X25       .00
 BV BND       X26       .00
 BV BND       X27       .00
 BV BND       X28       .00
 BV BND       X29       .00
 BV BND       X30       .00
 BV BND       X31       .00
 BV BND       X32       .00
 BV BND       X33       .00
 BV BND       X34       .00
 BV BND       X35       .00
 BV BND       X36       .00
 BV BND       X37       .00
 BV BND       X38       .00
 BV BND       X39       .00
 BV BND       X40       .00
 BV BND       X41       .00
 BV BND       X42       .00
 BV BND       X43       .00
 BV BND       X44       .00
 BV BND       X45       .00
 BV BND       X46       .00
 BV BND       X47       .00
 BV BND       X48       .00
 BV BND       X49       .00
 BV BND       X50       .00
 BV BND       X51       .00
 BV BND       X52       .00
 BV BND       X53       .00
 BV BND       X54       .00
 BV BND       X55       .00
 BV BND       X56       .00
 BV BND       X57       .00
 BV BND       X58       .00
 BV BND       X59       .00
 BV BND       X60       .00
 BV BND       X61       .00
 BV BND       X62       .00
 BV BND       X63       .00
 BV BND       X64       .00
 BV BND       X65       .00
 BV BND       X66       .00
 BV BND       X67       .00
 BV BND       X68       .00
 BV BND       X69       .00
 BV BND       X70       .00
 BV BND       X71       .00
 BV BND       X72       .00
 BV BND       X73       .00
 BV BND       X74       .00
 BV BND       X75       .00
 BV BND       X76       .00
 BV BND       X77       .00
 BV BND       X78       .00
 BV BND       X79       .00
 BV BND       X80       .00
 BV BND       X81       .00
 BV BND       X82       .00
 BV BND       X83       .00
 BV BND       X84       .00
 BV BND       X85       .00
 BV BND       X86       .00
 BV BND       X87       .00
 BV BND       X88       .00
 BV BND       X89       .00
 BV BND       X90       .00
 BV BND       X91       .00
 BV BND       X92       .00
 BV BND       X93       .00
 BV BND       X94       .00
 BV BND       X95       .00
 BV BND       X96       .00
 BV BND       X97       .00
 BV BND       X98       .00
 BV BND       X99       .00
 BV BND       X100      .00
ENDATA
